************************************************************************
file with basedata            : c1533_.bas
initial value random generator: 2066998356
************************************************************************
projects                      :  1
jobs (incl. supersource/sink ):  18
horizon                       :  141
RESOURCES
  - renewable                 :  2   R
  - nonrenewable              :  2   N
  - doubly constrained        :  0   D
************************************************************************
PROJECT INFORMATION:
pronr.  #jobs rel.date duedate tardcost  MPM-Time
    1     16      0       25       12       25
************************************************************************
PRECEDENCE RELATIONS:
jobnr.    #modes  #successors   successors
   1        1          3           2   3   4
   2        3          1          11
   3        3          1           6
   4        3          1           5
   5        3          3           8  10  14
   6        3          2           7   9
   7        3          1          15
   8        3          2          13  16
   9        3          2          10  13
  10        3          1          16
  11        3          3          12  15  16
  12        3          2          13  14
  13        3          1          17
  14        3          1          17
  15        3          1          18
  16        3          1          18
  17        3          1          18
  18        1          0        
************************************************************************
REQUESTS/DURATIONS:
jobnr. mode duration  R 1  R 2  N 1  N 2
------------------------------------------------------------------------
  1      1     0       0    0    0    0
  2      1     2       0    5    7    8
         2     3       0    1    7    6
         3     8      10    0    2    3
  3      1     2       0    8    6    4
         2     4       0    7    3    3
         3     7       6    0    2    2
  4      1     3       0    9    8    5
         2     6       7    0    4    4
         3     8       4    0    3    3
  5      1     1       0    9    6    7
         2     4       0    5    6    4
         3     9       0    3    5    4
  6      1     6       0    9    7    8
         2    10       8    0    5    6
         3    10       0    9    7    5
  7      1     1       6    0    4   10
         2     8       0    2    4    9
         3    10       6    0    3    9
  8      1     5       9    0   10    8
         2     9       7    0    9    6
         3    10       0    6    8    6
  9      1     8       0    6    3    9
         2     8       0    6    4    8
         3    10       0    6    2    8
 10      1     3       3    0    6   10
         2     5       2    0    5    9
         3     8       0    3    3    7
 11      1     4       3    0    6    4
         2     6       0    6    6    4
         3    10       0    4    6    3
 12      1     1       0    2    9    8
         2     4      10    0    7    8
         3    10      10    0    4    7
 13      1     6       0    5    2    8
         2     9       2    0    2    7
         3    10       0    4    2    4
 14      1     6       0    7    9    7
         2     6       7    0    9    7
         3     9       0    6    3    6
 15      1     1       7    0    6    7
         2     5       6    0    6    7
         3     7       6    0    6    5
 16      1     6       0    7    4    5
         2     8       8    0    4    5
         3     9       7    0    3    2
 17      1     3       0    5    7    3
         2     6       7    0    7    1
         3     6       0    4    6    2
 18      1     0       0    0    0    0
************************************************************************
RESOURCEAVAILABILITIES:
  R 1  R 2  N 1  N 2
   11   11   73   84
************************************************************************
